NAME interKP-100-100-1-7.mps
OBJSENSE
 MIN
ROWS
 N COST
 L leaderCons
 L followerCons
 L inter0
 L inter1
 L inter2
 L inter3
 L inter4
 L inter5
 L inter6
 L inter7
 L inter8
 L inter9
 L inter10
 L inter11
 L inter12
 L inter13
 L inter14
 L inter15
 L inter16
 L inter17
 L inter18
 L inter19
 L inter20
 L inter21
 L inter22
 L inter23
 L inter24
 L inter25
 L inter26
 L inter27
 L inter28
 L inter29
 L inter30
 L inter31
 L inter32
 L inter33
 L inter34
 L inter35
 L inter36
 L inter37
 L inter38
 L inter39
 L inter40
 L inter41
 L inter42
 L inter43
 L inter44
 L inter45
 L inter46
 L inter47
 L inter48
 L inter49
 L inter50
 L inter51
 L inter52
 L inter53
 L inter54
 L inter55
 L inter56
 L inter57
 L inter58
 L inter59
 L inter60
 L inter61
 L inter62
 L inter63
 L inter64
 L inter65
 L inter66
 L inter67
 L inter68
 L inter69
 L inter70
 L inter71
 L inter72
 L inter73
 L inter74
 L inter75
 L inter76
 L inter77
 L inter78
 L inter79
 L inter80
 L inter81
 L inter82
 L inter83
 L inter84
 L inter85
 L inter86
 L inter87
 L inter88
 L inter89
 L inter90
 L inter91
 L inter92
 L inter93
 L inter94
 L inter95
 L inter96
 L inter97
 L inter98
 L inter99
COLUMNS
 x0 COST 0
 x0 leaderCons 0
 x0 inter0 1
 x1 COST 0
 x1 leaderCons 18
 x1 inter1 1
 x2 COST 0
 x2 leaderCons 51
 x2 inter2 1
 x3 COST 0
 x3 leaderCons 38
 x3 inter3 1
 x4 COST 0
 x4 leaderCons 62
 x4 inter4 1
 x5 COST 0
 x5 leaderCons 4
 x5 inter5 1
 x6 COST 0
 x6 leaderCons 85
 x6 inter6 1
 x7 COST 0
 x7 leaderCons 69
 x7 inter7 1
 x8 COST 0
 x8 leaderCons 56
 x8 inter8 1
 x9 COST 0
 x9 leaderCons 18
 x9 inter9 1
 x10 COST 0
 x10 leaderCons 1
 x10 inter10 1
 x11 COST 0
 x11 leaderCons 13
 x11 inter11 1
 x12 COST 0
 x12 leaderCons 81
 x12 inter12 1
 x13 COST 0
 x13 leaderCons 89
 x13 inter13 1
 x14 COST 0
 x14 leaderCons 37
 x14 inter14 1
 x15 COST 0
 x15 leaderCons 32
 x15 inter15 1
 x16 COST 0
 x16 leaderCons 30
 x16 inter16 1
 x17 COST 0
 x17 leaderCons 79
 x17 inter17 1
 x18 COST 0
 x18 leaderCons 62
 x18 inter18 1
 x19 COST 0
 x19 leaderCons 97
 x19 inter19 1
 x20 COST 0
 x20 leaderCons 4
 x20 inter20 1
 x21 COST 0
 x21 leaderCons 10
 x21 inter21 1
 x22 COST 0
 x22 leaderCons 24
 x22 inter22 1
 x23 COST 0
 x23 leaderCons 9
 x23 inter23 1
 x24 COST 0
 x24 leaderCons 27
 x24 inter24 1
 x25 COST 0
 x25 leaderCons 54
 x25 inter25 1
 x26 COST 0
 x26 leaderCons 95
 x26 inter26 1
 x27 COST 0
 x27 leaderCons 87
 x27 inter27 1
 x28 COST 0
 x28 leaderCons 38
 x28 inter28 1
 x29 COST 0
 x29 leaderCons 14
 x29 inter29 1
 x30 COST 0
 x30 leaderCons 55
 x30 inter30 1
 x31 COST 0
 x31 leaderCons 48
 x31 inter31 1
 x32 COST 0
 x32 leaderCons 40
 x32 inter32 1
 x33 COST 0
 x33 leaderCons 85
 x33 inter33 1
 x34 COST 0
 x34 leaderCons 14
 x34 inter34 1
 x35 COST 0
 x35 leaderCons 62
 x35 inter35 1
 x36 COST 0
 x36 leaderCons 72
 x36 inter36 1
 x37 COST 0
 x37 leaderCons 62
 x37 inter37 1
 x38 COST 0
 x38 leaderCons 98
 x38 inter38 1
 x39 COST 0
 x39 leaderCons 18
 x39 inter39 1
 x40 COST 0
 x40 leaderCons 22
 x40 inter40 1
 x41 COST 0
 x41 leaderCons 93
 x41 inter41 1
 x42 COST 0
 x42 leaderCons 74
 x42 inter42 1
 x43 COST 0
 x43 leaderCons 81
 x43 inter43 1
 x44 COST 0
 x44 leaderCons 67
 x44 inter44 1
 x45 COST 0
 x45 leaderCons 57
 x45 inter45 1
 x46 COST 0
 x46 leaderCons 58
 x46 inter46 1
 x47 COST 0
 x47 leaderCons 44
 x47 inter47 1
 x48 COST 0
 x48 leaderCons 7
 x48 inter48 1
 x49 COST 0
 x49 leaderCons 94
 x49 inter49 1
 x50 COST 0
 x50 leaderCons 3
 x50 inter50 1
 x51 COST 0
 x51 leaderCons 60
 x51 inter51 1
 x52 COST 0
 x52 leaderCons 94
 x52 inter52 1
 x53 COST 0
 x53 leaderCons 96
 x53 inter53 1
 x54 COST 0
 x54 leaderCons 24
 x54 inter54 1
 x55 COST 0
 x55 leaderCons 53
 x55 inter55 1
 x56 COST 0
 x56 leaderCons 12
 x56 inter56 1
 x57 COST 0
 x57 leaderCons 42
 x57 inter57 1
 x58 COST 0
 x58 leaderCons 84
 x58 inter58 1
 x59 COST 0
 x59 leaderCons 92
 x59 inter59 1
 x60 COST 0
 x60 leaderCons 42
 x60 inter60 1
 x61 COST 0
 x61 leaderCons 50
 x61 inter61 1
 x62 COST 0
 x62 leaderCons 89
 x62 inter62 1
 x63 COST 0
 x63 leaderCons 0
 x63 inter63 1
 x64 COST 0
 x64 leaderCons 3
 x64 inter64 1
 x65 COST 0
 x65 leaderCons 22
 x65 inter65 1
 x66 COST 0
 x66 leaderCons 15
 x66 inter66 1
 x67 COST 0
 x67 leaderCons 33
 x67 inter67 1
 x68 COST 0
 x68 leaderCons 63
 x68 inter68 1
 x69 COST 0
 x69 leaderCons 52
 x69 inter69 1
 x70 COST 0
 x70 leaderCons 46
 x70 inter70 1
 x71 COST 0
 x71 leaderCons 67
 x71 inter71 1
 x72 COST 0
 x72 leaderCons 44
 x72 inter72 1
 x73 COST 0
 x73 leaderCons 27
 x73 inter73 1
 x74 COST 0
 x74 leaderCons 56
 x74 inter74 1
 x75 COST 0
 x75 leaderCons 78
 x75 inter75 1
 x76 COST 0
 x76 leaderCons 86
 x76 inter76 1
 x77 COST 0
 x77 leaderCons 57
 x77 inter77 1
 x78 COST 0
 x78 leaderCons 67
 x78 inter78 1
 x79 COST 0
 x79 leaderCons 52
 x79 inter79 1
 x80 COST 0
 x80 leaderCons 81
 x80 inter80 1
 x81 COST 0
 x81 leaderCons 73
 x81 inter81 1
 x82 COST 0
 x82 leaderCons 48
 x82 inter82 1
 x83 COST 0
 x83 leaderCons 5
 x83 inter83 1
 x84 COST 0
 x84 leaderCons 43
 x84 inter84 1
 x85 COST 0
 x85 leaderCons 54
 x85 inter85 1
 x86 COST 0
 x86 leaderCons 13
 x86 inter86 1
 x87 COST 0
 x87 leaderCons 48
 x87 inter87 1
 x88 COST 0
 x88 leaderCons 39
 x88 inter88 1
 x89 COST 0
 x89 leaderCons 11
 x89 inter89 1
 x90 COST 0
 x90 leaderCons 41
 x90 inter90 1
 x91 COST 0
 x91 leaderCons 70
 x91 inter91 1
 x92 COST 0
 x92 leaderCons 62
 x92 inter92 1
 x93 COST 0
 x93 leaderCons 71
 x93 inter93 1
 x94 COST 0
 x94 leaderCons 50
 x94 inter94 1
 x95 COST 0
 x95 leaderCons 86
 x95 inter95 1
 x96 COST 0
 x96 leaderCons 96
 x96 inter96 1
 x97 COST 0
 x97 leaderCons 21
 x97 inter97 1
 x98 COST 0
 x98 leaderCons 72
 x98 inter98 1
 x99 COST 0
 x99 leaderCons 36
 x99 inter99 1
 y0 COST 46
 y0 followerCons 37
 y0 inter0 1
 y1 COST 14
 y1 followerCons 25
 y1 inter1 1
 y2 COST 62
 y2 followerCons 17
 y2 inter2 1
 y3 COST 13
 y3 followerCons 45
 y3 inter3 1
 y4 COST 17
 y4 followerCons 81
 y4 inter4 1
 y5 COST 28
 y5 followerCons 67
 y5 inter5 1
 y6 COST 27
 y6 followerCons 22
 y6 inter6 1
 y7 COST 92
 y7 followerCons 84
 y7 inter7 1
 y8 COST 13
 y8 followerCons 98
 y8 inter8 1
 y9 COST 28
 y9 followerCons 45
 y9 inter9 1
 y10 COST 27
 y10 followerCons 35
 y10 inter10 1
 y11 COST 51
 y11 followerCons 49
 y11 inter11 1
 y12 COST 34
 y12 followerCons 58
 y12 inter12 1
 y13 COST 9
 y13 followerCons 61
 y13 inter13 1
 y14 COST 83
 y14 followerCons 87
 y14 inter14 1
 y15 COST 65
 y15 followerCons 84
 y15 inter15 1
 y16 COST 53
 y16 followerCons 56
 y16 inter16 1
 y17 COST 34
 y17 followerCons 2
 y17 inter17 1
 y18 COST 32
 y18 followerCons 70
 y18 inter18 1
 y19 COST 24
 y19 followerCons 47
 y19 inter19 1
 y20 COST 19
 y20 followerCons 12
 y20 inter20 1
 y21 COST 38
 y21 followerCons 94
 y21 inter21 1
 y22 COST 25
 y22 followerCons 62
 y22 inter22 1
 y23 COST 59
 y23 followerCons 72
 y23 inter23 1
 y24 COST 72
 y24 followerCons 94
 y24 inter24 1
 y25 COST 58
 y25 followerCons 8
 y25 inter25 1
 y26 COST 35
 y26 followerCons 74
 y26 inter26 1
 y27 COST 99
 y27 followerCons 28
 y27 inter27 1
 y28 COST 35
 y28 followerCons 31
 y28 inter28 1
 y29 COST 95
 y29 followerCons 22
 y29 inter29 1
 y30 COST 1
 y30 followerCons 87
 y30 inter30 1
 y31 COST 67
 y31 followerCons 58
 y31 inter31 1
 y32 COST 62
 y32 followerCons 5
 y32 inter32 1
 y33 COST 50
 y33 followerCons 7
 y33 inter33 1
 y34 COST 95
 y34 followerCons 61
 y34 inter34 1
 y35 COST 29
 y35 followerCons 90
 y35 inter35 1
 y36 COST 48
 y36 followerCons 35
 y36 inter36 1
 y37 COST 37
 y37 followerCons 13
 y37 inter37 1
 y38 COST 41
 y38 followerCons 82
 y38 inter38 1
 y39 COST 5
 y39 followerCons 42
 y39 inter39 1
 y40 COST 81
 y40 followerCons 18
 y40 inter40 1
 y41 COST 1
 y41 followerCons 56
 y41 inter41 1
 y42 COST 35
 y42 followerCons 3
 y42 inter42 1
 y43 COST 26
 y43 followerCons 31
 y43 inter43 1
 y44 COST 58
 y44 followerCons 94
 y44 inter44 1
 y45 COST 40
 y45 followerCons 69
 y45 inter45 1
 y46 COST 52
 y46 followerCons 25
 y46 inter46 1
 y47 COST 50
 y47 followerCons 60
 y47 inter47 1
 y48 COST 31
 y48 followerCons 50
 y48 inter48 1
 y49 COST 9
 y49 followerCons 20
 y49 inter49 1
 y50 COST 93
 y50 followerCons 41
 y50 inter50 1
 y51 COST 24
 y51 followerCons 81
 y51 inter51 1
 y52 COST 14
 y52 followerCons 74
 y52 inter52 1
 y53 COST 21
 y53 followerCons 22
 y53 inter53 1
 y54 COST 80
 y54 followerCons 51
 y54 inter54 1
 y55 COST 77
 y55 followerCons 17
 y55 inter55 1
 y56 COST 11
 y56 followerCons 24
 y56 inter56 1
 y57 COST 81
 y57 followerCons 19
 y57 inter57 1
 y58 COST 43
 y58 followerCons 38
 y58 inter58 1
 y59 COST 50
 y59 followerCons 36
 y59 inter59 1
 y60 COST 31
 y60 followerCons 58
 y60 inter60 1
 y61 COST 27
 y61 followerCons 16
 y61 inter61 1
 y62 COST 88
 y62 followerCons 25
 y62 inter62 1
 y63 COST 13
 y63 followerCons 61
 y63 inter63 1
 y64 COST 99
 y64 followerCons 93
 y64 inter64 1
 y65 COST 52
 y65 followerCons 69
 y65 inter65 1
 y66 COST 64
 y66 followerCons 43
 y66 inter66 1
 y67 COST 17
 y67 followerCons 24
 y67 inter67 1
 y68 COST 20
 y68 followerCons 57
 y68 inter68 1
 y69 COST 76
 y69 followerCons 32
 y69 inter69 1
 y70 COST 54
 y70 followerCons 12
 y70 inter70 1
 y71 COST 25
 y71 followerCons 97
 y71 inter71 1
 y72 COST 46
 y72 followerCons 94
 y72 inter72 1
 y73 COST 3
 y73 followerCons 8
 y73 inter73 1
 y74 COST 58
 y74 followerCons 89
 y74 inter74 1
 y75 COST 37
 y75 followerCons 55
 y75 inter75 1
 y76 COST 51
 y76 followerCons 80
 y76 inter76 1
 y77 COST 28
 y77 followerCons 94
 y77 inter77 1
 y78 COST 16
 y78 followerCons 15
 y78 inter78 1
 y79 COST 66
 y79 followerCons 14
 y79 inter79 1
 y80 COST 74
 y80 followerCons 79
 y80 inter80 1
 y81 COST 70
 y81 followerCons 86
 y81 inter81 1
 y82 COST 40
 y82 followerCons 29
 y82 inter82 1
 y83 COST 4
 y83 followerCons 69
 y83 inter83 1
 y84 COST 66
 y84 followerCons 79
 y84 inter84 1
 y85 COST 36
 y85 followerCons 27
 y85 inter85 1
 y86 COST 74
 y86 followerCons 77
 y86 inter86 1
 y87 COST 75
 y87 followerCons 87
 y87 inter87 1
 y88 COST 2
 y88 followerCons 29
 y88 inter88 1
 y89 COST 59
 y89 followerCons 74
 y89 inter89 1
 y90 COST 9
 y90 followerCons 30
 y90 inter90 1
 y91 COST 5
 y91 followerCons 65
 y91 inter91 1
 y92 COST 60
 y92 followerCons 67
 y92 inter92 1
 y93 COST 28
 y93 followerCons 63
 y93 inter93 1
 y94 COST 21
 y94 followerCons 100
 y94 inter94 1
 y95 COST 99
 y95 followerCons 78
 y95 inter95 1
 y96 COST 28
 y96 followerCons 84
 y96 inter96 1
 y97 COST 48
 y97 followerCons 64
 y97 inter97 1
 y98 COST 27
 y98 followerCons 46
 y98 inter98 1
 y99 COST 17
 y99 followerCons 37
 y99 inter99 1
RHS
 rhs leaderCons 3291
 rhs followerCons 3297
 rhs inter0 1
 rhs inter1 1
 rhs inter2 1
 rhs inter3 1
 rhs inter4 1
 rhs inter5 1
 rhs inter6 1
 rhs inter7 1
 rhs inter8 1
 rhs inter9 1
 rhs inter10 1
 rhs inter11 1
 rhs inter12 1
 rhs inter13 1
 rhs inter14 1
 rhs inter15 1
 rhs inter16 1
 rhs inter17 1
 rhs inter18 1
 rhs inter19 1
 rhs inter20 1
 rhs inter21 1
 rhs inter22 1
 rhs inter23 1
 rhs inter24 1
 rhs inter25 1
 rhs inter26 1
 rhs inter27 1
 rhs inter28 1
 rhs inter29 1
 rhs inter30 1
 rhs inter31 1
 rhs inter32 1
 rhs inter33 1
 rhs inter34 1
 rhs inter35 1
 rhs inter36 1
 rhs inter37 1
 rhs inter38 1
 rhs inter39 1
 rhs inter40 1
 rhs inter41 1
 rhs inter42 1
 rhs inter43 1
 rhs inter44 1
 rhs inter45 1
 rhs inter46 1
 rhs inter47 1
 rhs inter48 1
 rhs inter49 1
 rhs inter50 1
 rhs inter51 1
 rhs inter52 1
 rhs inter53 1
 rhs inter54 1
 rhs inter55 1
 rhs inter56 1
 rhs inter57 1
 rhs inter58 1
 rhs inter59 1
 rhs inter60 1
 rhs inter61 1
 rhs inter62 1
 rhs inter63 1
 rhs inter64 1
 rhs inter65 1
 rhs inter66 1
 rhs inter67 1
 rhs inter68 1
 rhs inter69 1
 rhs inter70 1
 rhs inter71 1
 rhs inter72 1
 rhs inter73 1
 rhs inter74 1
 rhs inter75 1
 rhs inter76 1
 rhs inter77 1
 rhs inter78 1
 rhs inter79 1
 rhs inter80 1
 rhs inter81 1
 rhs inter82 1
 rhs inter83 1
 rhs inter84 1
 rhs inter85 1
 rhs inter86 1
 rhs inter87 1
 rhs inter88 1
 rhs inter89 1
 rhs inter90 1
 rhs inter91 1
 rhs inter92 1
 rhs inter93 1
 rhs inter94 1
 rhs inter95 1
 rhs inter96 1
 rhs inter97 1
 rhs inter98 1
 rhs inter99 1
BOUNDS
 LI bound x0 0
 UI bound x0 1
 LI bound x1 0
 UI bound x1 1
 LI bound x2 0
 UI bound x2 1
 LI bound x3 0
 UI bound x3 1
 LI bound x4 0
 UI bound x4 1
 LI bound x5 0
 UI bound x5 1
 LI bound x6 0
 UI bound x6 1
 LI bound x7 0
 UI bound x7 1
 LI bound x8 0
 UI bound x8 1
 LI bound x9 0
 UI bound x9 1
 LI bound x10 0
 UI bound x10 1
 LI bound x11 0
 UI bound x11 1
 LI bound x12 0
 UI bound x12 1
 LI bound x13 0
 UI bound x13 1
 LI bound x14 0
 UI bound x14 1
 LI bound x15 0
 UI bound x15 1
 LI bound x16 0
 UI bound x16 1
 LI bound x17 0
 UI bound x17 1
 LI bound x18 0
 UI bound x18 1
 LI bound x19 0
 UI bound x19 1
 LI bound x20 0
 UI bound x20 1
 LI bound x21 0
 UI bound x21 1
 LI bound x22 0
 UI bound x22 1
 LI bound x23 0
 UI bound x23 1
 LI bound x24 0
 UI bound x24 1
 LI bound x25 0
 UI bound x25 1
 LI bound x26 0
 UI bound x26 1
 LI bound x27 0
 UI bound x27 1
 LI bound x28 0
 UI bound x28 1
 LI bound x29 0
 UI bound x29 1
 LI bound x30 0
 UI bound x30 1
 LI bound x31 0
 UI bound x31 1
 LI bound x32 0
 UI bound x32 1
 LI bound x33 0
 UI bound x33 1
 LI bound x34 0
 UI bound x34 1
 LI bound x35 0
 UI bound x35 1
 LI bound x36 0
 UI bound x36 1
 LI bound x37 0
 UI bound x37 1
 LI bound x38 0
 UI bound x38 1
 LI bound x39 0
 UI bound x39 1
 LI bound x40 0
 UI bound x40 1
 LI bound x41 0
 UI bound x41 1
 LI bound x42 0
 UI bound x42 1
 LI bound x43 0
 UI bound x43 1
 LI bound x44 0
 UI bound x44 1
 LI bound x45 0
 UI bound x45 1
 LI bound x46 0
 UI bound x46 1
 LI bound x47 0
 UI bound x47 1
 LI bound x48 0
 UI bound x48 1
 LI bound x49 0
 UI bound x49 1
 LI bound x50 0
 UI bound x50 1
 LI bound x51 0
 UI bound x51 1
 LI bound x52 0
 UI bound x52 1
 LI bound x53 0
 UI bound x53 1
 LI bound x54 0
 UI bound x54 1
 LI bound x55 0
 UI bound x55 1
 LI bound x56 0
 UI bound x56 1
 LI bound x57 0
 UI bound x57 1
 LI bound x58 0
 UI bound x58 1
 LI bound x59 0
 UI bound x59 1
 LI bound x60 0
 UI bound x60 1
 LI bound x61 0
 UI bound x61 1
 LI bound x62 0
 UI bound x62 1
 LI bound x63 0
 UI bound x63 1
 LI bound x64 0
 UI bound x64 1
 LI bound x65 0
 UI bound x65 1
 LI bound x66 0
 UI bound x66 1
 LI bound x67 0
 UI bound x67 1
 LI bound x68 0
 UI bound x68 1
 LI bound x69 0
 UI bound x69 1
 LI bound x70 0
 UI bound x70 1
 LI bound x71 0
 UI bound x71 1
 LI bound x72 0
 UI bound x72 1
 LI bound x73 0
 UI bound x73 1
 LI bound x74 0
 UI bound x74 1
 LI bound x75 0
 UI bound x75 1
 LI bound x76 0
 UI bound x76 1
 LI bound x77 0
 UI bound x77 1
 LI bound x78 0
 UI bound x78 1
 LI bound x79 0
 UI bound x79 1
 LI bound x80 0
 UI bound x80 1
 LI bound x81 0
 UI bound x81 1
 LI bound x82 0
 UI bound x82 1
 LI bound x83 0
 UI bound x83 1
 LI bound x84 0
 UI bound x84 1
 LI bound x85 0
 UI bound x85 1
 LI bound x86 0
 UI bound x86 1
 LI bound x87 0
 UI bound x87 1
 LI bound x88 0
 UI bound x88 1
 LI bound x89 0
 UI bound x89 1
 LI bound x90 0
 UI bound x90 1
 LI bound x91 0
 UI bound x91 1
 LI bound x92 0
 UI bound x92 1
 LI bound x93 0
 UI bound x93 1
 LI bound x94 0
 UI bound x94 1
 LI bound x95 0
 UI bound x95 1
 LI bound x96 0
 UI bound x96 1
 LI bound x97 0
 UI bound x97 1
 LI bound x98 0
 UI bound x98 1
 LI bound x99 0
 UI bound x99 1
 LI bound y0 0
 LI bound y1 0
 LI bound y2 0
 LI bound y3 0
 LI bound y4 0
 LI bound y5 0
 LI bound y6 0
 LI bound y7 0
 LI bound y8 0
 LI bound y9 0
 LI bound y10 0
 LI bound y11 0
 LI bound y12 0
 LI bound y13 0
 LI bound y14 0
 LI bound y15 0
 LI bound y16 0
 LI bound y17 0
 LI bound y18 0
 LI bound y19 0
 LI bound y20 0
 LI bound y21 0
 LI bound y22 0
 LI bound y23 0
 LI bound y24 0
 LI bound y25 0
 LI bound y26 0
 LI bound y27 0
 LI bound y28 0
 LI bound y29 0
 LI bound y30 0
 LI bound y31 0
 LI bound y32 0
 LI bound y33 0
 LI bound y34 0
 LI bound y35 0
 LI bound y36 0
 LI bound y37 0
 LI bound y38 0
 LI bound y39 0
 LI bound y40 0
 LI bound y41 0
 LI bound y42 0
 LI bound y43 0
 LI bound y44 0
 LI bound y45 0
 LI bound y46 0
 LI bound y47 0
 LI bound y48 0
 LI bound y49 0
 LI bound y50 0
 LI bound y51 0
 LI bound y52 0
 LI bound y53 0
 LI bound y54 0
 LI bound y55 0
 LI bound y56 0
 LI bound y57 0
 LI bound y58 0
 LI bound y59 0
 LI bound y60 0
 LI bound y61 0
 LI bound y62 0
 LI bound y63 0
 LI bound y64 0
 LI bound y65 0
 LI bound y66 0
 LI bound y67 0
 LI bound y68 0
 LI bound y69 0
 LI bound y70 0
 LI bound y71 0
 LI bound y72 0
 LI bound y73 0
 LI bound y74 0
 LI bound y75 0
 LI bound y76 0
 LI bound y77 0
 LI bound y78 0
 LI bound y79 0
 LI bound y80 0
 LI bound y81 0
 LI bound y82 0
 LI bound y83 0
 LI bound y84 0
 LI bound y85 0
 LI bound y86 0
 LI bound y87 0
 LI bound y88 0
 LI bound y89 0
 LI bound y90 0
 LI bound y91 0
 LI bound y92 0
 LI bound y93 0
 LI bound y94 0
 LI bound y95 0
 LI bound y96 0
 LI bound y97 0
 LI bound y98 0
 LI bound y99 0
ENDATA
